c Este es un archivo de ejemplo para una gráfica con 18 vértices y 25 aristas
p edge 18 25
e 1 2
e 1 3
e 1 18
e 2 4
e 2 5
e 2 17
e 3 6
e 3 16
e 4 7
e 4 8
e 5 9
e 5 10
e 6 11
e 6 12
e 7 13
e 8 14
e 9 15
e 10 16
e 11 17
e 12 18
e 13 14
e 14 15
e 15 16
e 16 17
e 17 18
